WARNING: for repeatability, setting FPU to use double precision
============================[ Problem Statistics ]=============================
|                                                                             |
|  Number of variables:           100                                         |
|  Number of clauses:             449                                         |
|  Parse time:                   0.00 s                                       |
|  Eliminated clauses:           0.00 Mb                                      |
|  Simplification time:          0.00 s                                       |
|                                                                             |
============================[ Search Statistics ]==============================
| Conflicts |          ORIGINAL         |          LEARNT          | Progress |
|           |    Vars  Clauses Literals |    Limit  Clauses Lit/Cl |          |
===============================================================================
|       100 |      96      445     1372 |      163      100      7 |  0.011 % |
|       250 |      96      445     1372 |      179      167      7 |  0.010 % |
|       475 |      95      436     1345 |      197      167      6 |  1.010 % |
===============================================================================
restarts              : 4
conflicts             : 491            (100041 /sec)
decisions             : 601            (0.00 % random) (122453 /sec)
propagations          : 11552          (2353708 /sec)
conflict literals     : 3134           (21.20 % deleted)
Memory used           : 13.00 MB
CPU time              : 0.004908 s

SATISFIABLE
